(declare-fun main@%_984_0 () (_ BitVec 8))
(declare-fun main@%_975_0 () (_ BitVec 16))
(declare-fun main@%_973_0 () (_ BitVec 8))
(declare-fun main@%_948_0 () (_ BitVec 8))
(declare-fun main@%_946_0 () (_ BitVec 8))
(declare-fun main@%_926_0 () (_ BitVec 16))
(declare-fun main@%_939_0 () (_ BitVec 8))
(declare-fun main@%_893_0 () (_ BitVec 8))
(declare-fun main@%_863_0 () (_ BitVec 8))
(declare-fun main@%_838_0 () (_ BitVec 8))
(declare-fun main@%_836_0 () (_ BitVec 8))
(declare-fun main@%_816_0 () (_ BitVec 16))
(declare-fun main@%_829_0 () (_ BitVec 8))
(declare-fun main@%_783_0 () (_ BitVec 8))
(declare-fun main@%_781_0 () (_ BitVec 8))
(declare-fun main@%_774_0 () (_ BitVec 8))
(declare-fun main@%_728_0 () (_ BitVec 8))
(declare-fun main@%_726_0 () (_ BitVec 8))
(declare-fun main@%_719_0 () (_ BitVec 8))
(declare-fun main@%_673_0 () (_ BitVec 8))
(declare-fun main@%_671_0 () (_ BitVec 8))
(declare-fun main@%_664_0 () (_ BitVec 8))
(declare-fun main@%_618_0 () (_ BitVec 8))
(declare-fun main@%_616_0 () (_ BitVec 8))
(declare-fun main@%_609_0 () (_ BitVec 8))
(declare-fun main@%_231_0 () (_ BitVec 8))
(declare-fun main@%_706_0 () (_ BitVec 16))
(declare-fun main@%_423_0 () (_ BitVec 8))
(declare-fun main@%_982_0 () (_ BitVec 8))
(declare-fun main@%_224_0 () (_ BitVec 8))
(declare-fun main@%_980_0 () (_ BitVec 8))
(declare-fun main@%_160_0 () (_ BitVec 16))
(declare-fun main@%_152_0 () (_ BitVec 8))
(declare-fun main@%_0_0 () (_ BitVec 8))
(declare-fun main@%_376_0 () (_ BitVec 16))
(declare-fun main@%_169_0 () (_ BitVec 8))
(declare-fun main@%_398_0 () (_ BitVec 8))
(declare-fun main@%_561_0 () (_ BitVec 8))
(declare-fun main@%_211_0 () (_ BitVec 16))
(declare-fun main@%_8_0 () (_ BitVec 16))
(declare-fun main@%_111_0 () (_ BitVec 16))
(declare-fun main@%_554_0 () (_ BitVec 8))
(declare-fun main@%_871_0 () (_ BitVec 16))
(declare-fun main@%_103_0 () (_ BitVec 8))
(declare-fun main@%_126_0 () (_ BitVec 8))
(declare-fun main@%_596_0 () (_ BitVec 16))
(declare-fun main@%_313_0 () (_ BitVec 8))
(declare-fun main@%_233_0 () (_ BitVec 8))
(declare-fun main@%_128_0 () (_ BitVec 8))
(declare-fun main@%_918_0 () (_ BitVec 8))
(declare-fun main@%_176_0 () (_ BitVec 8))
(declare-fun main@%_651_0 () (_ BitVec 16))
(declare-fun main@%_368_0 () (_ BitVec 8))
(declare-fun main@%_178_0 () (_ BitVec 8))
(declare-fun main@%_643_0 () (_ BitVec 8))
(declare-fun main@%_396_0 () (_ BitVec 8))
(declare-fun main@%_884_0 () (_ BitVec 8))
(declare-fun main@%_62_0 () (_ BitVec 16))
(declare-fun main@%_431_0 () (_ BitVec 16))
(declare-fun main@%_23_0 () (_ BitVec 8))
(declare-fun main@%_54_0 () (_ BitVec 8))
(declare-fun main@%_266_0 () (_ BitVec 16))
(declare-fun main@%_7_0 () (_ BitVec 8))
(declare-fun main@%_891_0 () (_ BitVec 8))
(declare-fun main@%_120_0 () (_ BitVec 8))
(declare-fun main@%_71_0 () (_ BitVec 8))
(declare-fun main@%_533_0 () (_ BitVec 8))
(declare-fun main@%_286_0 () (_ BitVec 8))
(declare-fun main@%_761_0 () (_ BitVec 16))
(declare-fun main@%_478_0 () (_ BitVec 8))
(declare-fun main@%_77_0 () (_ BitVec 8))
(declare-fun main@%_808_0 () (_ BitVec 8))
(declare-fun main@%_79_0 () (_ BitVec 8))
(declare-fun main@%_279_0 () (_ BitVec 8))
(declare-fun main@%_288_0 () (_ BitVec 8))
(declare-fun main@%_334_0 () (_ BitVec 8))
(declare-fun main@%_321_0 () (_ BitVec 16))
(declare-fun main@%_588_0 () (_ BitVec 8))
(declare-fun main@%_341_0 () (_ BitVec 8))
(declare-fun main@%_343_0 () (_ BitVec 8))
(declare-fun sea.sp0_0 () (_ BitVec 64))
(declare-fun main@%_389_0 () (_ BitVec 8))
(declare-fun main@%_563_0 () (_ BitVec 8))
(declare-fun main@%_4_0 () (_ BitVec 8))
(declare-fun main@%_444_0 () (_ BitVec 8))
(declare-fun main@%_698_0 () (_ BitVec 8))
(declare-fun main@%_451_0 () (_ BitVec 8))
(declare-fun main@%_2_0 () (_ BitVec 8))
(declare-fun main@%_453_0 () (_ BitVec 8))
(declare-fun main@%_31_0 () (_ BitVec 8))
(declare-fun main@%_499_0 () (_ BitVec 8))
(declare-fun main@%_203_0 () (_ BitVec 8))
(declare-fun main@%_486_0 () (_ BitVec 16))
(declare-fun main@%_753_0 () (_ BitVec 8))
(declare-fun main@%_506_0 () (_ BitVec 8))
(declare-fun main@%_29_0 () (_ BitVec 8))
(declare-fun main@%_508_0 () (_ BitVec 8))
(declare-fun main@%_258_0 () (_ BitVec 8))
(declare-fun main@%_541_0 () (_ BitVec 16))

(assert (let ((a!1 (or (= ((_ extract 0 0) main@%_2_0) #b1)
               (xor (= ((_ extract 0 0) main@%_4_0) #b1) true)))
      (a!6 (or (= (bvand ((_ extract 3 0) main@%_23_0) #xd) #xd)
               (= (bvand ((_ extract 3 0) main@%_23_0) #xe) #xa)))
      (a!7 (or (= ((_ extract 0 0) main@%_29_0) #b1)
               (xor (= ((_ extract 0 0) main@%_31_0) #b1) true)))
      (a!11 (or (= (bvand ((_ extract 3 0) main@%_71_0) #xd) #xd)
                (= (bvand ((_ extract 3 0) main@%_71_0) #xe) #xa)))
      (a!12 (or (= ((_ extract 0 0) main@%_77_0) #b1)
                (xor (= ((_ extract 0 0) main@%_79_0) #b1) true)))
      (a!14 (or (= ((_ extract 3 0) main@%_23_0) #xf)
                (= (bvand ((_ extract 3 0) main@%_23_0) #xe) #x8)))
      (a!21 (or (= (bvand ((_ extract 3 0) main@%_120_0) #xd) #xd)
                (= (bvand ((_ extract 3 0) main@%_120_0) #xe) #xa)))
      (a!22 (or (= ((_ extract 0 0) main@%_126_0) #b1)
                (xor (= ((_ extract 0 0) main@%_128_0) #b1) true)))
      (a!24 (or (= ((_ extract 3 0) main@%_71_0) #xf)
                (= (bvand ((_ extract 3 0) main@%_71_0) #xe) #x8)))
      (a!31 (or (= (bvand ((_ extract 3 0) main@%_169_0) #xd) #xd)
                (= (bvand ((_ extract 3 0) main@%_169_0) #xe) #xa)))
      (a!32 (or (= ((_ extract 0 0) main@%_176_0) #b1)
                (xor (= ((_ extract 0 0) main@%_178_0) #b1) true)))
      (a!34 (or (= ((_ extract 3 0) main@%_120_0) #xf)
                (= (bvand ((_ extract 3 0) main@%_120_0) #xe) #x8)))
      (a!43 (or (= ((_ extract 3 0) main@%_169_0) #xf)
                (= (bvand ((_ extract 3 0) main@%_169_0) #xe) #x8)))
      (a!47 (or (= (bvand ((_ extract 3 0) main@%_224_0) #xd) #xd)
                (= (bvand ((_ extract 3 0) main@%_224_0) #xe) #xa)))
      (a!48 (or (= ((_ extract 0 0) main@%_231_0) #b1)
                (xor (= ((_ extract 0 0) main@%_233_0) #b1) true)))
      (a!53 (or (= ((_ extract 3 0) main@%_224_0) #xf)
                (= (bvand ((_ extract 3 0) main@%_224_0) #xe) #x8)))
      (a!57 (or (= (bvand ((_ extract 3 0) main@%_279_0) #xd) #xd)
                (= (bvand ((_ extract 3 0) main@%_279_0) #xe) #xa)))
      (a!58 (or (= ((_ extract 0 0) main@%_286_0) #b1)
                (xor (= ((_ extract 0 0) main@%_288_0) #b1) true)))
      (a!63 (or (= ((_ extract 3 0) main@%_279_0) #xf)
                (= (bvand ((_ extract 3 0) main@%_279_0) #xe) #x8)))
      (a!68 (or (= (bvand ((_ extract 3 0) main@%_334_0) #xd) #xd)
                (= (bvand ((_ extract 3 0) main@%_334_0) #xe) #xa)))
      (a!69 (or (= ((_ extract 0 0) main@%_341_0) #b1)
                (xor (= ((_ extract 0 0) main@%_343_0) #b1) true)))
      (a!74 (or (= ((_ extract 3 0) main@%_334_0) #xf)
                (= (bvand ((_ extract 3 0) main@%_334_0) #xe) #x8)))
      (a!78 (or (= (bvand ((_ extract 3 0) main@%_389_0) #xd) #xd)
                (= (bvand ((_ extract 3 0) main@%_389_0) #xe) #xa)))
      (a!79 (or (= ((_ extract 0 0) main@%_396_0) #b1)
                (xor (= ((_ extract 0 0) main@%_398_0) #b1) true)))
      (a!84 (or (= ((_ extract 3 0) main@%_389_0) #xf)
                (= (bvand ((_ extract 3 0) main@%_389_0) #xe) #x8)))
      (a!88 (or (= (bvand ((_ extract 3 0) main@%_444_0) #xd) #xd)
                (= (bvand ((_ extract 3 0) main@%_444_0) #xe) #xa)))
      (a!89 (or (= ((_ extract 0 0) main@%_451_0) #b1)
                (xor (= ((_ extract 0 0) main@%_453_0) #b1) true)))
      (a!94 (or (= ((_ extract 3 0) main@%_444_0) #xf)
                (= (bvand ((_ extract 3 0) main@%_444_0) #xe) #x8)))
      (a!99 (or (= (bvand ((_ extract 3 0) main@%_499_0) #xd) #xd)
                (= (bvand ((_ extract 3 0) main@%_499_0) #xe) #xa)))
      (a!100 (or (= ((_ extract 0 0) main@%_506_0) #b1)
                 (xor (= ((_ extract 0 0) main@%_508_0) #b1) true)))
      (a!105 (or (= ((_ extract 3 0) main@%_499_0) #xf)
                 (= (bvand ((_ extract 3 0) main@%_499_0) #xe) #x8)))
      (a!109 (or (= (bvand ((_ extract 3 0) main@%_554_0) #xd) #xd)
                 (= (bvand ((_ extract 3 0) main@%_554_0) #xe) #xa)))
      (a!110 (or (= ((_ extract 0 0) main@%_561_0) #b1)
                 (xor (= ((_ extract 0 0) main@%_563_0) #b1) true)))
      (a!115 (or (= ((_ extract 3 0) main@%_554_0) #xf)
                 (= (bvand ((_ extract 3 0) main@%_554_0) #xe) #x8)))
      (a!119 (or (= (bvand ((_ extract 3 0) main@%_609_0) #xd) #xd)
                 (= (bvand ((_ extract 3 0) main@%_609_0) #xe) #xa)))
      (a!120 (or (= ((_ extract 0 0) main@%_616_0) #b1)
                 (xor (= ((_ extract 0 0) main@%_618_0) #b1) true)))
      (a!125 (or (= ((_ extract 3 0) main@%_609_0) #xf)
                 (= (bvand ((_ extract 3 0) main@%_609_0) #xe) #x8)))
      (a!130 (or (= (bvand ((_ extract 3 0) main@%_664_0) #xd) #xd)
                 (= (bvand ((_ extract 3 0) main@%_664_0) #xe) #xa)))
      (a!131 (or (= ((_ extract 0 0) main@%_671_0) #b1)
                 (xor (= ((_ extract 0 0) main@%_673_0) #b1) true)))
      (a!136 (or (= ((_ extract 3 0) main@%_664_0) #xf)
                 (= (bvand ((_ extract 3 0) main@%_664_0) #xe) #x8)))
      (a!140 (or (= (bvand ((_ extract 3 0) main@%_719_0) #xd) #xd)
                 (= (bvand ((_ extract 3 0) main@%_719_0) #xe) #xa)))
      (a!141 (or (= ((_ extract 0 0) main@%_726_0) #b1)
                 (xor (= ((_ extract 0 0) main@%_728_0) #b1) true)))
      (a!146 (or (= ((_ extract 3 0) main@%_719_0) #xf)
                 (= (bvand ((_ extract 3 0) main@%_719_0) #xe) #x8)))
      (a!150 (or (= (bvand ((_ extract 3 0) main@%_774_0) #xd) #xd)
                 (= (bvand ((_ extract 3 0) main@%_774_0) #xe) #xa)))
      (a!151 (or (= ((_ extract 0 0) main@%_781_0) #b1)
                 (xor (= ((_ extract 0 0) main@%_783_0) #b1) true)))
      (a!156 (or (= ((_ extract 3 0) main@%_774_0) #xf)
                 (= (bvand ((_ extract 3 0) main@%_774_0) #xe) #x8)))
      (a!161 (or (= (bvand ((_ extract 3 0) main@%_829_0) #xd) #xd)
                 (= (bvand ((_ extract 3 0) main@%_829_0) #xe) #xa)))
      (a!162 (or (= ((_ extract 0 0) main@%_836_0) #b1)
                 (xor (= ((_ extract 0 0) main@%_838_0) #b1) true)))
      (a!167 (or (= ((_ extract 3 0) main@%_829_0) #xf)
                 (= (bvand ((_ extract 3 0) main@%_829_0) #xe) #x8)))
      (a!171 (or (= (bvand ((_ extract 3 0) main@%_884_0) #xd) #xd)
                 (= (bvand ((_ extract 3 0) main@%_884_0) #xe) #xa)))
      (a!172 (or (= ((_ extract 0 0) main@%_891_0) #b1)
                 (xor (= ((_ extract 0 0) main@%_893_0) #b1) true)))
      (a!177 (or (= ((_ extract 3 0) main@%_884_0) #xf)
                 (= (bvand ((_ extract 3 0) main@%_884_0) #xe) #x8)))
      (a!181 (or (= (bvand ((_ extract 3 0) main@%_939_0) #xd) #xd)
                 (= (bvand ((_ extract 3 0) main@%_939_0) #xe) #xa)))
      (a!182 (or (= ((_ extract 0 0) main@%_946_0) #b1)
                 (xor (= ((_ extract 0 0) main@%_948_0) #b1) true)))
      (a!187 (or (= ((_ extract 3 0) main@%_939_0) #xf)
                 (= (bvand ((_ extract 3 0) main@%_939_0) #xe) #x8)))
      (a!191 (or (= (bvand ((_ extract 3 0) main@%_980_0) #xd) #xd)
                 (= (bvand ((_ extract 3 0) main@%_980_0) #xe) #xa)))
      (a!192 (or (= ((_ extract 0 0) main@%_982_0) #b1)
                 (xor (= ((_ extract 0 0) main@%_984_0) #b1) true))))
(let ((a!2 (or (= (bvand ((_ extract 3 0) main@%_0_0) #xe) #x4)
               (and (= ((_ extract 3 0) main@%_0_0) #x1) a!1)))
      (a!3 (or (= ((_ extract 3 0) main@%_0_0) #xc)
               (and (= ((_ extract 3 0) main@%_0_0) #x4) a!1)
               (xor (= ((_ extract 0 0) main@%_7_0) #b1) true)))
      (a!8 (or (= (bvand ((_ extract 3 0) main@%_23_0) #xe) #x4)
               (and (= ((_ extract 3 0) main@%_23_0) #x1) a!7)))
      (a!13 (or (= ((_ extract 3 0) main@%_23_0) #xc)
                (and (= ((_ extract 3 0) main@%_23_0) #x4) a!7)
                (xor (= ((_ extract 0 0) main@%_54_0) #b1) true)))
      (a!18 (or (= (bvand ((_ extract 3 0) main@%_71_0) #xe) #x4)
                (and (= ((_ extract 3 0) main@%_71_0) #x1) a!12)))
      (a!23 (or (= ((_ extract 3 0) main@%_71_0) #xc)
                (and (= ((_ extract 3 0) main@%_71_0) #x4) a!12)
                (xor (= ((_ extract 0 0) main@%_103_0) #b1) true)))
      (a!28 (or (= (bvand ((_ extract 3 0) main@%_120_0) #xe) #x4)
                (and (= ((_ extract 3 0) main@%_120_0) #x1) a!22)))
      (a!33 (or (= ((_ extract 3 0) main@%_120_0) #xc)
                (and (= ((_ extract 3 0) main@%_120_0) #x4) a!22)
                (xor (= ((_ extract 0 0) main@%_152_0) #b1) true)))
      (a!39 (or (= (bvand ((_ extract 3 0) main@%_169_0) #xe) #x4)
                (and (= ((_ extract 3 0) main@%_169_0) #x1) a!32)))
      (a!42 (or (= ((_ extract 3 0) main@%_169_0) #xc)
                (and (= ((_ extract 3 0) main@%_169_0) #x4) a!32)
                (xor (= ((_ extract 0 0) main@%_203_0) #b1) true)))
      (a!49 (or (= (bvand ((_ extract 3 0) main@%_224_0) #xe) #x4)
                (and (= ((_ extract 3 0) main@%_224_0) #x1) a!48)))
      (a!52 (or (= ((_ extract 3 0) main@%_224_0) #xc)
                (and (= ((_ extract 3 0) main@%_224_0) #x4) a!48)
                (xor (= ((_ extract 0 0) main@%_258_0) #b1) true)))
      (a!59 (or (= (bvand ((_ extract 3 0) main@%_279_0) #xe) #x4)
                (and (= ((_ extract 3 0) main@%_279_0) #x1) a!58)))
      (a!62 (or (= ((_ extract 3 0) main@%_279_0) #xc)
                (and (= ((_ extract 3 0) main@%_279_0) #x4) a!58)
                (xor (= ((_ extract 0 0) main@%_313_0) #b1) true)))
      (a!70 (or (= (bvand ((_ extract 3 0) main@%_334_0) #xe) #x4)
                (and (= ((_ extract 3 0) main@%_334_0) #x1) a!69)))
      (a!73 (or (= ((_ extract 3 0) main@%_334_0) #xc)
                (and (= ((_ extract 3 0) main@%_334_0) #x4) a!69)
                (xor (= ((_ extract 0 0) main@%_368_0) #b1) true)))
      (a!80 (or (= (bvand ((_ extract 3 0) main@%_389_0) #xe) #x4)
                (and (= ((_ extract 3 0) main@%_389_0) #x1) a!79)))
      (a!83 (or (= ((_ extract 3 0) main@%_389_0) #xc)
                (and (= ((_ extract 3 0) main@%_389_0) #x4) a!79)
                (xor (= ((_ extract 0 0) main@%_423_0) #b1) true)))
      (a!90 (or (= (bvand ((_ extract 3 0) main@%_444_0) #xe) #x4)
                (and (= ((_ extract 3 0) main@%_444_0) #x1) a!89)))
      (a!93 (or (= ((_ extract 3 0) main@%_444_0) #xc)
                (and (= ((_ extract 3 0) main@%_444_0) #x4) a!89)
                (xor (= ((_ extract 0 0) main@%_478_0) #b1) true)))
      (a!101 (or (= (bvand ((_ extract 3 0) main@%_499_0) #xe) #x4)
                 (and (= ((_ extract 3 0) main@%_499_0) #x1) a!100)))
      (a!104 (or (= ((_ extract 3 0) main@%_499_0) #xc)
                 (and (= ((_ extract 3 0) main@%_499_0) #x4) a!100)
                 (xor (= ((_ extract 0 0) main@%_533_0) #b1) true)))
      (a!111 (or (= (bvand ((_ extract 3 0) main@%_554_0) #xe) #x4)
                 (and (= ((_ extract 3 0) main@%_554_0) #x1) a!110)))
      (a!114 (or (= ((_ extract 3 0) main@%_554_0) #xc)
                 (and (= ((_ extract 3 0) main@%_554_0) #x4) a!110)
                 (xor (= ((_ extract 0 0) main@%_588_0) #b1) true)))
      (a!121 (or (= (bvand ((_ extract 3 0) main@%_609_0) #xe) #x4)
                 (and (= ((_ extract 3 0) main@%_609_0) #x1) a!120)))
      (a!124 (or (= ((_ extract 3 0) main@%_609_0) #xc)
                 (and (= ((_ extract 3 0) main@%_609_0) #x4) a!120)
                 (xor (= ((_ extract 0 0) main@%_643_0) #b1) true)))
      (a!132 (or (= (bvand ((_ extract 3 0) main@%_664_0) #xe) #x4)
                 (and (= ((_ extract 3 0) main@%_664_0) #x1) a!131)))
      (a!135 (or (= ((_ extract 3 0) main@%_664_0) #xc)
                 (and (= ((_ extract 3 0) main@%_664_0) #x4) a!131)
                 (xor (= ((_ extract 0 0) main@%_698_0) #b1) true)))
      (a!142 (or (= (bvand ((_ extract 3 0) main@%_719_0) #xe) #x4)
                 (and (= ((_ extract 3 0) main@%_719_0) #x1) a!141)))
      (a!145 (or (= ((_ extract 3 0) main@%_719_0) #xc)
                 (and (= ((_ extract 3 0) main@%_719_0) #x4) a!141)
                 (xor (= ((_ extract 0 0) main@%_753_0) #b1) true)))
      (a!152 (or (= (bvand ((_ extract 3 0) main@%_774_0) #xe) #x4)
                 (and (= ((_ extract 3 0) main@%_774_0) #x1) a!151)))
      (a!155 (or (= ((_ extract 3 0) main@%_774_0) #xc)
                 (and (= ((_ extract 3 0) main@%_774_0) #x4) a!151)
                 (xor (= ((_ extract 0 0) main@%_808_0) #b1) true)))
      (a!163 (or (= (bvand ((_ extract 3 0) main@%_829_0) #xe) #x4)
                 (and (= ((_ extract 3 0) main@%_829_0) #x1) a!162)))
      (a!166 (or (= ((_ extract 3 0) main@%_829_0) #xc)
                 (and (= ((_ extract 3 0) main@%_829_0) #x4) a!162)
                 (xor (= ((_ extract 0 0) main@%_863_0) #b1) true)))
      (a!173 (or (= (bvand ((_ extract 3 0) main@%_884_0) #xe) #x4)
                 (and (= ((_ extract 3 0) main@%_884_0) #x1) a!172)))
      (a!176 (or (= ((_ extract 3 0) main@%_884_0) #xc)
                 (and (= ((_ extract 3 0) main@%_884_0) #x4) a!172)
                 (xor (= ((_ extract 0 0) main@%_918_0) #b1) true)))
      (a!183 (or (= (bvand ((_ extract 3 0) main@%_939_0) #xe) #x4)
                 (and (= ((_ extract 3 0) main@%_939_0) #x1) a!182)))
      (a!186 (or (= ((_ extract 3 0) main@%_939_0) #xc)
                 (and (= ((_ extract 3 0) main@%_939_0) #x4) a!182)
                 (xor (= ((_ extract 0 0) main@%_973_0) #b1) true)))
      (a!193 (or (= (bvand ((_ extract 3 0) main@%_980_0) #xe) #x4)
                 (and (= ((_ extract 3 0) main@%_980_0) #x1) a!192))))
(let ((a!4 (not (= (ite a!3 ((_ extract 11 0) main@%_8_0) #x000) #x000)))
      (a!9 (ite (not (= ((_ extract 3 0) main@%_23_0) #x0)) a!2 false)))
(let ((a!5 (and (or (= ((_ extract 3 0) main@%_23_0) #x8)
                    (= ((_ extract 3 0) main@%_23_0) #xf))
                (xor a!4 true)))
      (a!15 (ite (and a!4 a!14 (= ((_ extract 0 0) main@%_54_0) #b1)) #b1 #b0)))
(let ((a!10 (ite (and a!2 (or a!5 (and a!6 a!7)))
                 ((_ sign_extend 2) (ite (xor a!2 true) #b1 #b0))
                 (ite a!8 (ite a!2 #b010 #b001) (ite a!9 #b001 #b000))))
      (a!16 (ite a!13
                 ((_ extract 11 0) main@%_62_0)
                 (bvadd (ite a!3 ((_ extract 11 0) main@%_8_0) #x000)
                        ((_ sign_extend 11) a!15)))))
(let ((a!17 (and (or (= ((_ extract 3 0) main@%_71_0) #x8)
                     (= ((_ extract 3 0) main@%_71_0) #xf))
                 (xor (not (= a!16 #x000)) true)))
      (a!19 (ite a!18
                 (bvadd a!10 #b001)
                 (ite (= ((_ extract 3 0) main@%_71_0) #x0) #b000 a!10)))
      (a!25 (ite (and a!24
                      (not (= a!16 #x000))
                      (= ((_ extract 0 0) main@%_103_0) #b1))
                 #b1
                 #b0)))
(let ((a!20 (ite (and (not (= a!10 #b000)) (or (and a!11 a!12) a!17))
                 (bvadd a!10 #b111)
                 a!19))
      (a!26 (= (ite a!23
                    ((_ extract 11 0) main@%_111_0)
                    (bvadd a!16 ((_ sign_extend 11) a!25)))
               #x000)))
(let ((a!27 (and (or (= ((_ extract 3 0) main@%_120_0) #x8)
                     (= ((_ extract 3 0) main@%_120_0) #xf))
                 (xor (not a!26) true)))
      (a!29 (ite a!28
                 (bvadd a!20 #b001)
                 (ite (= ((_ extract 3 0) main@%_120_0) #x0) #b000 a!20)))
      (a!35 (ite (and a!34 (not a!26) (= ((_ extract 0 0) main@%_152_0) #b1))
                 #b1
                 #b0)))
(let ((a!30 (ite (and (not (= a!20 #b000)) (or (and a!21 a!22) a!27))
                 (bvadd a!20 #b111)
                 a!29))
      (a!36 (bvadd (ite a!23
                        ((_ extract 11 0) main@%_111_0)
                        (bvadd a!16 ((_ sign_extend 11) a!25)))
                   ((_ sign_extend 11) a!35))))
(let ((a!37 (not (= (ite a!33 ((_ extract 11 0) main@%_160_0) a!36) #x000)))
      (a!40 (ite (and (not (= a!30 #b101)) a!39)
                 (bvadd a!30 #b001)
                 (ite (= ((_ extract 3 0) main@%_169_0) #x0) #b000 a!30))))
(let ((a!38 (and (or (= ((_ extract 3 0) main@%_169_0) #x8)
                     (= ((_ extract 3 0) main@%_169_0) #xf))
                 (xor a!37 true)))
      (a!44 (ite (and a!43 a!37 (= ((_ extract 0 0) main@%_203_0) #b1)) #b1 #b0)))
(let ((a!41 (ite (and (not (= a!30 #b000)) (or (and a!31 a!32) a!38))
                 (bvadd a!30 #b111)
                 a!40))
      (a!45 (ite a!42
                 ((_ extract 11 0) main@%_211_0)
                 (bvadd (ite a!33 ((_ extract 11 0) main@%_160_0) a!36)
                        ((_ sign_extend 11) a!44)))))
(let ((a!46 (and (or (= ((_ extract 3 0) main@%_224_0) #x8)
                     (= ((_ extract 3 0) main@%_224_0) #xf))
                 (xor (not (= a!45 #x000)) true)))
      (a!50 (ite (and (not (= a!41 #b101)) a!49)
                 (bvadd a!41 #b001)
                 (ite (= ((_ extract 3 0) main@%_224_0) #x0) #b000 a!41)))
      (a!54 (ite (and (not (= a!45 #x000))
                      a!53
                      (= ((_ extract 0 0) main@%_258_0) #b1))
                 #b1
                 #b0)))
(let ((a!51 (ite (and (not (= a!41 #b000)) (or a!46 (and a!47 a!48)))
                 (bvadd a!41 #b111)
                 a!50))
      (a!55 (= (ite a!52
                    ((_ extract 11 0) main@%_266_0)
                    (bvadd a!45 ((_ sign_extend 11) a!54)))
               #x000)))
(let ((a!56 (and (or (= ((_ extract 3 0) main@%_279_0) #x8)
                     (= ((_ extract 3 0) main@%_279_0) #xf))
                 (xor (not a!55) true)))
      (a!60 (ite (and (not (= a!51 #b101)) a!59)
                 (bvadd a!51 #b001)
                 (ite (= ((_ extract 3 0) main@%_279_0) #x0) #b000 a!51)))
      (a!64 (ite (and (not a!55) a!63 (= ((_ extract 0 0) main@%_313_0) #b1))
                 #b1
                 #b0)))
(let ((a!61 (ite (and (not (= a!51 #b000)) (or a!56 (and a!57 a!58)))
                 (bvadd a!51 #b111)
                 a!60))
      (a!65 (bvadd (ite a!52
                        ((_ extract 11 0) main@%_266_0)
                        (bvadd a!45 ((_ sign_extend 11) a!54)))
                   ((_ sign_extend 11) a!64))))
(let ((a!66 (not (= (ite a!62 ((_ extract 11 0) main@%_321_0) a!65) #x000)))
      (a!71 (ite (and (not (= a!61 #b101)) a!70)
                 (bvadd a!61 #b001)
                 (ite (= ((_ extract 3 0) main@%_334_0) #x0) #b000 a!61))))
(let ((a!67 (and (or (= ((_ extract 3 0) main@%_334_0) #x8)
                     (= ((_ extract 3 0) main@%_334_0) #xf))
                 (xor a!66 true)))
      (a!75 (ite (and a!66 a!74 (= ((_ extract 0 0) main@%_368_0) #b1)) #b1 #b0)))
(let ((a!72 (ite (and (not (= a!61 #b000)) (or a!67 (and a!68 a!69)))
                 (bvadd a!61 #b111)
                 a!71))
      (a!76 (ite a!73
                 ((_ extract 11 0) main@%_376_0)
                 (bvadd (ite a!62 ((_ extract 11 0) main@%_321_0) a!65)
                        ((_ sign_extend 11) a!75)))))
(let ((a!77 (and (or (= ((_ extract 3 0) main@%_389_0) #x8)
                     (= ((_ extract 3 0) main@%_389_0) #xf))
                 (xor (not (= a!76 #x000)) true)))
      (a!81 (ite (and (not (= a!72 #b101)) a!80)
                 (bvadd a!72 #b001)
                 (ite (= ((_ extract 3 0) main@%_389_0) #x0) #b000 a!72)))
      (a!85 (ite (and (not (= a!76 #x000))
                      a!84
                      (= ((_ extract 0 0) main@%_423_0) #b1))
                 #b1
                 #b0)))
(let ((a!82 (ite (and (not (= a!72 #b000)) (or a!77 (and a!78 a!79)))
                 (bvadd a!72 #b111)
                 a!81))
      (a!86 (= (ite a!83
                    ((_ extract 11 0) main@%_431_0)
                    (bvadd a!76 ((_ sign_extend 11) a!85)))
               #x000)))
(let ((a!87 (and (or (= ((_ extract 3 0) main@%_444_0) #x8)
                     (= ((_ extract 3 0) main@%_444_0) #xf))
                 (xor (not a!86) true)))
      (a!91 (ite (and (not (= a!82 #b101)) a!90)
                 (bvadd a!82 #b001)
                 (ite (= ((_ extract 3 0) main@%_444_0) #x0) #b000 a!82)))
      (a!95 (ite (and (not a!86) a!94 (= ((_ extract 0 0) main@%_478_0) #b1))
                 #b1
                 #b0)))
(let ((a!92 (ite (and (not (= a!82 #b000)) (or a!87 (and a!88 a!89)))
                 (bvadd a!82 #b111)
                 a!91))
      (a!96 (bvadd (ite a!83
                        ((_ extract 11 0) main@%_431_0)
                        (bvadd a!76 ((_ sign_extend 11) a!85)))
                   ((_ sign_extend 11) a!95))))
(let ((a!97 (not (= (ite a!93 ((_ extract 11 0) main@%_486_0) a!96) #x000)))
      (a!102 (ite (and (not (= a!92 #b101)) a!101)
                  (bvadd a!92 #b001)
                  (ite (= ((_ extract 3 0) main@%_499_0) #x0) #b000 a!92))))
(let ((a!98 (and (or (= ((_ extract 3 0) main@%_499_0) #x8)
                     (= ((_ extract 3 0) main@%_499_0) #xf))
                 (xor a!97 true)))
      (a!106 (ite (and a!97 a!105 (= ((_ extract 0 0) main@%_533_0) #b1))
                  #b1
                  #b0)))
(let ((a!103 (ite (and (not (= a!92 #b000)) (or a!98 (and a!99 a!100)))
                  (bvadd a!92 #b111)
                  a!102))
      (a!107 (ite a!104
                  ((_ extract 11 0) main@%_541_0)
                  (bvadd (ite a!93 ((_ extract 11 0) main@%_486_0) a!96)
                         ((_ sign_extend 11) a!106)))))
(let ((a!108 (and (or (= ((_ extract 3 0) main@%_554_0) #x8)
                      (= ((_ extract 3 0) main@%_554_0) #xf))
                  (xor (not (= a!107 #x000)) true)))
      (a!112 (ite (and (not (= a!103 #b101)) a!111)
                  (bvadd a!103 #b001)
                  (ite (= ((_ extract 3 0) main@%_554_0) #x0) #b000 a!103)))
      (a!116 (ite (and (not (= a!107 #x000))
                       a!115
                       (= ((_ extract 0 0) main@%_588_0) #b1))
                  #b1
                  #b0)))
(let ((a!113 (ite (and (not (= a!103 #b000)) (or a!108 (and a!109 a!110)))
                  (bvadd a!103 #b111)
                  a!112))
      (a!117 (= (ite a!114
                     ((_ extract 11 0) main@%_596_0)
                     (bvadd a!107 ((_ sign_extend 11) a!116)))
                #x000)))
(let ((a!118 (and (or (= ((_ extract 3 0) main@%_609_0) #x8)
                      (= ((_ extract 3 0) main@%_609_0) #xf))
                  (xor (not a!117) true)))
      (a!122 (ite (and (not (= a!113 #b101)) a!121)
                  (bvadd a!113 #b001)
                  (ite (= ((_ extract 3 0) main@%_609_0) #x0) #b000 a!113)))
      (a!126 (ite (and (not a!117) a!125 (= ((_ extract 0 0) main@%_643_0) #b1))
                  #b1
                  #b0)))
(let ((a!123 (ite (and (not (= a!113 #b000)) (or a!118 (and a!119 a!120)))
                  (bvadd a!113 #b111)
                  a!122))
      (a!127 (bvadd (ite a!114
                         ((_ extract 11 0) main@%_596_0)
                         (bvadd a!107 ((_ sign_extend 11) a!116)))
                    ((_ sign_extend 11) a!126))))
(let ((a!128 (not (= (ite a!124 ((_ extract 11 0) main@%_651_0) a!127) #x000)))
      (a!133 (ite (and (not (= a!123 #b101)) a!132)
                  (bvadd a!123 #b001)
                  (ite (= ((_ extract 3 0) main@%_664_0) #x0) #b000 a!123))))
(let ((a!129 (and (or (= ((_ extract 3 0) main@%_664_0) #x8)
                      (= ((_ extract 3 0) main@%_664_0) #xf))
                  (xor a!128 true)))
      (a!137 (ite (and a!128 a!136 (= ((_ extract 0 0) main@%_698_0) #b1))
                  #b1
                  #b0)))
(let ((a!134 (ite (and (not (= a!123 #b000)) (or a!129 (and a!130 a!131)))
                  (bvadd a!123 #b111)
                  a!133))
      (a!138 (ite a!135
                  ((_ extract 11 0) main@%_706_0)
                  (bvadd (ite a!124 ((_ extract 11 0) main@%_651_0) a!127)
                         ((_ sign_extend 11) a!137)))))
(let ((a!139 (and (or (= ((_ extract 3 0) main@%_719_0) #x8)
                      (= ((_ extract 3 0) main@%_719_0) #xf))
                  (xor (not (= a!138 #x000)) true)))
      (a!143 (ite (and (not (= a!134 #b101)) a!142)
                  (bvadd a!134 #b001)
                  (ite (= ((_ extract 3 0) main@%_719_0) #x0) #b000 a!134)))
      (a!147 (ite (and (not (= a!138 #x000))
                       a!146
                       (= ((_ extract 0 0) main@%_753_0) #b1))
                  #b1
                  #b0)))
(let ((a!144 (ite (and (not (= a!134 #b000)) (or a!139 (and a!140 a!141)))
                  (bvadd a!134 #b111)
                  a!143))
      (a!148 (= (ite a!145
                     ((_ extract 11 0) main@%_761_0)
                     (bvadd a!138 ((_ sign_extend 11) a!147)))
                #x000)))
(let ((a!149 (and (or (= ((_ extract 3 0) main@%_774_0) #x8)
                      (= ((_ extract 3 0) main@%_774_0) #xf))
                  (xor (not a!148) true)))
      (a!153 (ite (and (not (= a!144 #b101)) a!152)
                  (bvadd a!144 #b001)
                  (ite (= ((_ extract 3 0) main@%_774_0) #x0) #b000 a!144)))
      (a!157 (ite (and (not a!148) a!156 (= ((_ extract 0 0) main@%_808_0) #b1))
                  #b1
                  #b0)))
(let ((a!154 (ite (and (not (= a!144 #b000)) (or a!149 (and a!150 a!151)))
                  (bvadd a!144 #b111)
                  a!153))
      (a!158 (bvadd (ite a!145
                         ((_ extract 11 0) main@%_761_0)
                         (bvadd a!138 ((_ sign_extend 11) a!147)))
                    ((_ sign_extend 11) a!157))))
(let ((a!159 (not (= (ite a!155 ((_ extract 11 0) main@%_816_0) a!158) #x000)))
      (a!164 (ite (and (not (= a!154 #b101)) a!163)
                  (bvadd a!154 #b001)
                  (ite (= ((_ extract 3 0) main@%_829_0) #x0) #b000 a!154))))
(let ((a!160 (and (or (= ((_ extract 3 0) main@%_829_0) #x8)
                      (= ((_ extract 3 0) main@%_829_0) #xf))
                  (xor a!159 true)))
      (a!168 (ite (and a!159 a!167 (= ((_ extract 0 0) main@%_863_0) #b1))
                  #b1
                  #b0)))
(let ((a!165 (ite (and (not (= a!154 #b000)) (or a!160 (and a!161 a!162)))
                  (bvadd a!154 #b111)
                  a!164))
      (a!169 (ite a!166
                  ((_ extract 11 0) main@%_871_0)
                  (bvadd (ite a!155 ((_ extract 11 0) main@%_816_0) a!158)
                         ((_ sign_extend 11) a!168)))))
(let ((a!170 (and (or (= ((_ extract 3 0) main@%_884_0) #x8)
                      (= ((_ extract 3 0) main@%_884_0) #xf))
                  (xor (not (= a!169 #x000)) true)))
      (a!174 (ite (and (not (= a!165 #b101)) a!173)
                  (bvadd a!165 #b001)
                  (ite (= ((_ extract 3 0) main@%_884_0) #x0) #b000 a!165)))
      (a!178 (ite (and (not (= a!169 #x000))
                       a!177
                       (= ((_ extract 0 0) main@%_918_0) #b1))
                  #b1
                  #b0)))
(let ((a!175 (ite (and (not (= a!165 #b000)) (or a!170 (and a!171 a!172)))
                  (bvadd a!165 #b111)
                  a!174))
      (a!179 (= (ite a!176
                     ((_ extract 11 0) main@%_926_0)
                     (bvadd a!169 ((_ sign_extend 11) a!178)))
                #x000)))
(let ((a!180 (and (or (= ((_ extract 3 0) main@%_939_0) #x8)
                      (= ((_ extract 3 0) main@%_939_0) #xf))
                  (xor (not a!179) true)))
      (a!184 (ite (and (not (= a!175 #b101)) a!183)
                  (bvadd a!175 #b001)
                  (ite (= ((_ extract 3 0) main@%_939_0) #x0) #b000 a!175)))
      (a!188 (ite (and (not a!179) a!187 (= ((_ extract 0 0) main@%_973_0) #b1))
                  #b1
                  #b0)))
(let ((a!185 (ite (and (not (= a!175 #b000)) (or a!180 (and a!181 a!182)))
                  (bvadd a!175 #b111)
                  a!184))
      (a!189 (bvadd (ite a!176
                         ((_ extract 11 0) main@%_926_0)
                         (bvadd a!169 ((_ sign_extend 11) a!178)))
                    ((_ sign_extend 11) a!188))))
(let ((a!190 (and (= (ite a!186 ((_ extract 11 0) main@%_975_0) a!189) #x000)
                  (or (= ((_ extract 3 0) main@%_980_0) #x8)
                      (= ((_ extract 3 0) main@%_980_0) #xf))))
      (a!194 (ite (and (not (= a!185 #b101)) a!193)
                  (bvadd a!185 #b001)
                  (ite (= ((_ extract 3 0) main@%_980_0) #x0) #b000 a!185))))
(let ((a!195 (ite (and (not (= a!185 #b000)) (or a!190 (and a!191 a!192)))
                  (bvadd a!185 #b111)
                  a!194)))
(let ((a!196 (xor (or (not (= a!185 #b110)) (= a!195 #b111)) true)))
(let ((a!197 (ite (or (not (= a!175 #b110)) (= a!185 #b111))
                  (and true a!196)
                  true)))
(let ((a!198 (ite (or (not (= a!165 #b110)) (= a!175 #b111)) a!197 true)))
(let ((a!199 (ite (or (not (= a!154 #b110)) (= a!165 #b111)) a!198 true)))
(let ((a!200 (ite (or (not (= a!144 #b110)) (= a!154 #b111)) a!199 true)))
(let ((a!201 (ite (or (not (= a!134 #b110)) (= a!144 #b111)) a!200 true)))
(let ((a!202 (ite (or (not (= a!123 #b110)) (= a!134 #b111)) a!201 true)))
(let ((a!203 (ite (or (not (= a!113 #b110)) (= a!123 #b111)) a!202 true)))
(let ((a!204 (ite (or (not (= a!103 #b110)) (= a!113 #b111)) a!203 true)))
(let ((a!205 (ite (or (not (= a!92 #b110)) (= a!103 #b111)) a!204 true)))
(let ((a!206 (ite (or (not (= a!82 #b110)) (= a!92 #b111)) a!205 true)))
(let ((a!207 (ite (or (not (= a!72 #b110)) (= a!82 #b111)) a!206 true)))
(let ((a!208 (ite (or (not (= a!61 #b110)) (= a!72 #b111)) a!207 true)))
(let ((a!209 (ite (or (not (= a!51 #b110)) (= a!61 #b111)) a!208 true)))
(let ((a!210 (ite (or (not (= a!41 #b110)) (= a!51 #b111)) a!209 true)))
(let ((a!211 (ite (or (not (= a!30 #b110)) (= a!41 #b111)) a!210 true)))
(let ((a!212 (ite (or (not (= a!20 #b110)) (= a!30 #b111)) a!211 true)))
  (and (= #b000 ((_ extract 2 0) sea.sp0_0))
       (bvule sea.sp0_0 #x00000000c0000000)
       (bvuge sea.sp0_0 #x00000000bf700000)
       a!212)))))))))))))))))))))))))))))))))))))))))))))))))))))))))))))))))
(check-sat)
